param N := 50;
param U := 50;

param CAPACITY := 100;

param WEIGHT :=
1	99
2	99
3	96
4	96
5	92
6	92
7	91
8	88
9	87
10	86
11	85
12	76
13	74
14	72
15	69
16	67
17	67
18	62
19	61
20	56
21	52
22	51
23	49
24	46
25	44
26	42
27	40
28	40
29	33
30	33
31	30
32	30
33	29
34	28
35	28
36	27
37	25
38	24
39	23
40	22
41	21
42	20
43	17
44	14
45	13
46	11
47	10
48	7
49	7
50	3
;
